
Gurobi 6.5.2 (linux64) logging started Sun Sep 18 18:44:09 2016


Gurobi 6.5.2 (linux64) logging started Sun Sep 18 18:44:09 2016

Optimize a model with 201 rows, 1585 columns and 3457 nonzeros
Coefficient statistics:
  Matrix range    [1e+00, 2e+00]
  Objective range [1e+00, 1e+02]
  Bounds range    [1e+00, 1e+00]
  RHS range       [1e+00, 1e+00]
Presolve removed 47 rows and 7 columns
Presolve time: 0.01s
Presolved: 154 rows, 1578 columns, 3262 nonzeros
Variable types: 0 continuous, 1578 integer (1578 binary)

Root relaxation: objective 1.379500e+03, 146 iterations, 0.00 seconds

    Nodes    |    Current Node    |     Objective Bounds      |     Work
 Expl Unexpl |  Obj  Depth IntInf | Incumbent    BestBd   Gap | It/Node Time

     0     0 1379.50000    0   18          - 1379.50000      -     -    0s
H    0     0                    1892.0000000 1379.50000  27.1%     -    0s
     0     0 1399.28571    0   17 1892.00000 1399.28571  26.0%     -    0s
     0     0 1399.28571    0   16 1892.00000 1399.28571  26.0%     -    0s
     0     2 1399.28571    0   15 1892.00000 1399.28571  26.0%     -    0s
*  478   406              62    1578.0000000 1402.00000  11.2%   5.8    0s
*  479   406              61    1561.0000000 1402.00000  10.2%   5.8    0s
*  574   486              66    1560.0000000 1402.65000  10.1%   5.7    0s
*  639   291              10    1426.0000000 1403.00000  1.61%   5.8    0s
* 1088   314              39    1421.0000000 1404.50000  1.16%   6.1    0s
* 1629   180              15    1413.0000000 1408.00000  0.35%   5.9    0s
* 1982    17              10    1412.0000000 1409.00000  0.21%   5.5    0s

Cutting planes:
  Cover: 18
  Zero half: 4
  Lazy constraints: 234

Explored 2069 nodes (11315 simplex iterations) in 0.74 seconds
Thread count was 8 (of 8 available processors)

Optimal solution found (tolerance 1.00e-04)
Best objective 1.412000000000e+03, best bound 1.412000000000e+03, gap 0.0%
